p cnf 178 572
0 1 0
-0 -1 0
2 0 3 0
-2 -0 0
-2 -3 0
-0 -3 0
4 2 5 0
-4 -2 0
-4 -5 0
-2 -5 0
6 4 7 0
-6 -4 0
-6 -7 0
-4 -7 0
8 6 9 0
-8 -6 0
-8 -9 0
-6 -9 0
10 8 11 0
-10 -8 0
-10 -11 0
-8 -11 0
12 10 13 0
-12 -10 0
-12 -13 0
-10 -13 0
14 12 15 0
-14 -12 0
-14 -15 0
-12 -15 0
14 16 0
-14 -16 0
17 18 0
-17 -18 0
19 17 20 1 0
-19 -17 0
-19 -20 0
-19 -1 0
-17 -20 0
-17 -1 0
-20 -1 0
21 19 22 3 0
-21 -19 0
-21 -22 0
-21 -3 0
-19 -22 0
-19 -3 0
-22 -3 0
23 21 24 5 0
-23 -21 0
-23 -24 0
-23 -5 0
-21 -24 0
-21 -5 0
-24 -5 0
25 23 26 7 0
-25 -23 0
-25 -26 0
-25 -7 0
-23 -26 0
-23 -7 0
-26 -7 0
27 25 28 9 0
-27 -25 0
-27 -28 0
-27 -9 0
-25 -28 0
-25 -9 0
-28 -9 0
29 27 30 11 0
-29 -27 0
-29 -30 0
-29 -11 0
-27 -30 0
-27 -11 0
-30 -11 0
31 29 32 13 0
-31 -29 0
-31 -32 0
-31 -13 0
-29 -32 0
-29 -13 0
-32 -13 0
33 31 34 15 0
-33 -31 0
-33 -34 0
-33 -15 0
-31 -34 0
-31 -15 0
-34 -15 0
33 35 16 0
-33 -35 0
-33 -16 0
-35 -16 0
36 37 18 0
-36 -37 0
-36 -18 0
-37 -18 0
38 36 39 20 0
-38 -36 0
-38 -39 0
-38 -20 0
-36 -39 0
-36 -20 0
-39 -20 0
40 38 41 22 0
-40 -38 0
-40 -41 0
-40 -22 0
-38 -41 0
-38 -22 0
-41 -22 0
42 40 43 24 0
-42 -40 0
-42 -43 0
-42 -24 0
-40 -43 0
-40 -24 0
-43 -24 0
44 42 45 26 0
-44 -42 0
-44 -45 0
-44 -26 0
-42 -45 0
-42 -26 0
-45 -26 0
46 44 47 28 0
-46 -44 0
-46 -47 0
-46 -28 0
-44 -47 0
-44 -28 0
-47 -28 0
48 46 49 30 0
-48 -46 0
-48 -49 0
-48 -30 0
-46 -49 0
-46 -30 0
-49 -30 0
50 48 51 32 0
-50 -48 0
-50 -51 0
-50 -32 0
-48 -51 0
-48 -32 0
-51 -32 0
52 50 53 34 0
-52 -50 0
-52 -53 0
-52 -34 0
-50 -53 0
-50 -34 0
-53 -34 0
52 54 35 0
-52 -54 0
-52 -35 0
-54 -35 0
55 56 37 0
-55 -56 0
-55 -37 0
-56 -37 0
57 55 58 39 0
-57 -55 0
-57 -58 0
-57 -39 0
-55 -58 0
-55 -39 0
-58 -39 0
59 57 60 41 0
-59 -57 0
-59 -60 0
-59 -41 0
-57 -60 0
-57 -41 0
-60 -41 0
61 59 62 43 0
-61 -59 0
-61 -62 0
-61 -43 0
-59 -62 0
-59 -43 0
-62 -43 0
63 61 64 45 0
-63 -61 0
-63 -64 0
-63 -45 0
-61 -64 0
-61 -45 0
-64 -45 0
65 63 66 47 0
-65 -63 0
-65 -66 0
-65 -47 0
-63 -66 0
-63 -47 0
-66 -47 0
67 65 68 49 0
-67 -65 0
-67 -68 0
-67 -49 0
-65 -68 0
-65 -49 0
-68 -49 0
69 67 70 51 0
-69 -67 0
-69 -70 0
-69 -51 0
-67 -70 0
-67 -51 0
-70 -51 0
71 69 72 53 0
-71 -69 0
-71 -72 0
-71 -53 0
-69 -72 0
-69 -53 0
-72 -53 0
71 73 54 0
-71 -73 0
-71 -54 0
-73 -54 0
74 75 56 0
-74 -75 0
-74 -56 0
-75 -56 0
76 74 77 58 0
-76 -74 0
-76 -77 0
-76 -58 0
-74 -77 0
-74 -58 0
-77 -58 0
78 76 79 60 0
-78 -76 0
-78 -79 0
-78 -60 0
-76 -79 0
-76 -60 0
-79 -60 0
80 78 81 62 0
-80 -78 0
-80 -81 0
-80 -62 0
-78 -81 0
-78 -62 0
-81 -62 0
82 80 83 64 0
-82 -80 0
-82 -83 0
-82 -64 0
-80 -83 0
-80 -64 0
-83 -64 0
84 82 85 66 0
-84 -82 0
-84 -85 0
-84 -66 0
-82 -85 0
-82 -66 0
-85 -66 0
86 84 87 68 0
-86 -84 0
-86 -87 0
-86 -68 0
-84 -87 0
-84 -68 0
-87 -68 0
88 86 89 70 0
-88 -86 0
-88 -89 0
-88 -70 0
-86 -89 0
-86 -70 0
-89 -70 0
90 88 91 72 0
-90 -88 0
-90 -91 0
-90 -72 0
-88 -91 0
-88 -72 0
-91 -72 0
90 92 73 0
-90 -92 0
-90 -73 0
-92 -73 0
93 94 75 0
-93 -94 0
-93 -75 0
-94 -75 0
95 93 96 77 0
-95 -93 0
-95 -96 0
-95 -77 0
-93 -96 0
-93 -77 0
-96 -77 0
97 95 98 79 0
-97 -95 0
-97 -98 0
-97 -79 0
-95 -98 0
-95 -79 0
-98 -79 0
99 97 100 81 0
-99 -97 0
-99 -100 0
-99 -81 0
-97 -100 0
-97 -81 0
-100 -81 0
101 99 102 83 0
-101 -99 0
-101 -102 0
-101 -83 0
-99 -102 0
-99 -83 0
-102 -83 0
103 101 104 85 0
-103 -101 0
-103 -104 0
-103 -85 0
-101 -104 0
-101 -85 0
-104 -85 0
105 103 106 87 0
-105 -103 0
-105 -106 0
-105 -87 0
-103 -106 0
-103 -87 0
-106 -87 0
107 105 108 89 0
-107 -105 0
-107 -108 0
-107 -89 0
-105 -108 0
-105 -89 0
-108 -89 0
109 107 110 91 0
-109 -107 0
-109 -110 0
-109 -91 0
-107 -110 0
-107 -91 0
-110 -91 0
109 111 92 0
-109 -111 0
-109 -92 0
-111 -92 0
112 113 94 0
-112 -113 0
-112 -94 0
-113 -94 0
114 112 115 96 0
-114 -112 0
-114 -115 0
-114 -96 0
-112 -115 0
-112 -96 0
-115 -96 0
116 114 117 98 0
-116 -114 0
-116 -117 0
-116 -98 0
-114 -117 0
-114 -98 0
-117 -98 0
118 116 119 100 0
-118 -116 0
-118 -119 0
-118 -100 0
-116 -119 0
-116 -100 0
-119 -100 0
120 118 121 102 0
-120 -118 0
-120 -121 0
-120 -102 0
-118 -121 0
-118 -102 0
-121 -102 0
122 120 123 104 0
-122 -120 0
-122 -123 0
-122 -104 0
-120 -123 0
-120 -104 0
-123 -104 0
124 122 125 106 0
-124 -122 0
-124 -125 0
-124 -106 0
-122 -125 0
-122 -106 0
-125 -106 0
126 124 127 108 0
-126 -124 0
-126 -127 0
-126 -108 0
-124 -127 0
-124 -108 0
-127 -108 0
128 126 129 110 0
-128 -126 0
-128 -129 0
-128 -110 0
-126 -129 0
-126 -110 0
-129 -110 0
128 130 111 0
-128 -130 0
-128 -111 0
-130 -111 0
131 132 113 0
-131 -132 0
-131 -113 0
-132 -113 0
133 131 134 115 0
-133 -131 0
-133 -134 0
-133 -115 0
-131 -134 0
-131 -115 0
-134 -115 0
135 133 136 117 0
-135 -133 0
-135 -136 0
-135 -117 0
-133 -136 0
-133 -117 0
-136 -117 0
137 135 138 119 0
-137 -135 0
-137 -138 0
-137 -119 0
-135 -138 0
-135 -119 0
-138 -119 0
139 137 140 121 0
-139 -137 0
-139 -140 0
-139 -121 0
-137 -140 0
-137 -121 0
-140 -121 0
141 139 142 123 0
-141 -139 0
-141 -142 0
-141 -123 0
-139 -142 0
-139 -123 0
-142 -123 0
143 141 144 125 0
-143 -141 0
-143 -144 0
-143 -125 0
-141 -144 0
-141 -125 0
-144 -125 0
145 143 146 127 0
-145 -143 0
-145 -146 0
-145 -127 0
-143 -146 0
-143 -127 0
-146 -127 0
147 145 148 129 0
-147 -145 0
-147 -148 0
-147 -129 0
-145 -148 0
-145 -129 0
-148 -129 0
147 149 130 0
-147 -149 0
-147 -130 0
-149 -130 0
150 151 132 0
-150 -151 0
-150 -132 0
-151 -132 0
152 150 153 134 0
-152 -150 0
-152 -153 0
-152 -134 0
-150 -153 0
-150 -134 0
-153 -134 0
154 152 155 136 0
-154 -152 0
-154 -155 0
-154 -136 0
-152 -155 0
-152 -136 0
-155 -136 0
156 154 157 138 0
-156 -154 0
-156 -157 0
-156 -138 0
-154 -157 0
-154 -138 0
-157 -138 0
158 156 159 140 0
-158 -156 0
-158 -159 0
-158 -140 0
-156 -159 0
-156 -140 0
-159 -140 0
160 158 161 142 0
-160 -158 0
-160 -161 0
-160 -142 0
-158 -161 0
-158 -142 0
-161 -142 0
162 160 163 144 0
-162 -160 0
-162 -163 0
-162 -144 0
-160 -163 0
-160 -144 0
-163 -144 0
164 162 165 146 0
-164 -162 0
-164 -165 0
-164 -146 0
-162 -165 0
-162 -146 0
-165 -146 0
166 164 167 148 0
-166 -164 0
-166 -167 0
-166 -148 0
-164 -167 0
-164 -148 0
-167 -148 0
166 149 0
-166 -149 0
169 151 0
-169 -151 0
170 169 153 0
-170 -169 0
-170 -153 0
-169 -153 0
171 170 155 0
-171 -170 0
-171 -155 0
-170 -155 0
172 171 157 0
-172 -171 0
-172 -157 0
-171 -157 0
173 172 159 0
-173 -172 0
-173 -159 0
-172 -159 0
174 173 161 0
-174 -173 0
-174 -161 0
-173 -161 0
175 174 163 0
-175 -174 0
-175 -163 0
-174 -163 0
176 175 165 0
-176 -175 0
-176 -165 0
-175 -165 0
176 167 0
-176 -167 0